; 
(set-info :status unknown)
(declare-fun standard_metadata.ingress_port () (_ BitVec 9))
(declare-fun standard_metadata.egress_spec () (_ BitVec 9))
(assert
 (let (($x62 (= standard_metadata.ingress_port (_ bv1 9))))
 (or (or false (= standard_metadata.ingress_port (_ bv0 9))) $x62)))
(assert
 (let ((?x35 (concat (_ bv0 8) (_ bv0 1))))
 (let (($x41 (and true (= standard_metadata.ingress_port (concat (_ bv0 8) (_ bv1 1))))))
 (let (($x32 (not false)))
 (let (($x45 (and (and $x32 (not (and true (= standard_metadata.ingress_port ?x35)))) $x41)))
 (let ((?x39 (concat (_ bv0 8) (_ bv1 1))))
 (let (($x37 (and true (= standard_metadata.ingress_port ?x35))))
 (let (($x42 (and $x32 $x37)))
 (let ((?x56 (ite $x42 ?x39 (ite $x45 ?x35 standard_metadata.egress_spec))))
 (or (or (= ?x56 (_ bv455 9)) (= ?x56 (_ bv0 9))) (= ?x56 (_ bv1 9))))))))))))
(assert
 (let (($x41 (and true (= standard_metadata.ingress_port (concat (_ bv0 8) (_ bv1 1))))))
 (let (($x32 (not false)))
 (let (($x37 (and true (= standard_metadata.ingress_port (concat (_ bv0 8) (_ bv0 1))))))
 (let (($x42 (and $x32 $x37)))
 (let ((?x55 (ite $x42 0 (ite (and $x32 $x41) 1 (- 1)))))
 (let ((?x35 (concat (_ bv0 8) (_ bv0 1))))
 (let ((?x53 (ite (and (and $x32 (not $x37)) $x41) ?x35 standard_metadata.egress_spec)))
 (let ((?x39 (concat (_ bv0 8) (_ bv1 1))))
 (let ((?x56 (ite $x42 ?x39 ?x53)))
 (let (($x47 (= ?x56 (_ bv455 9))))
 (and (and (not $x47) $x32) (= ?x55 (- 1))))))))))))))
(check-sat)

; 
(set-info :status unknown)
(declare-fun standard_metadata.ingress_port () (_ BitVec 9))
(declare-fun standard_metadata.egress_spec () (_ BitVec 9))
(assert
 (let (($x62 (= standard_metadata.ingress_port (_ bv1 9))))
 (or (or false (= standard_metadata.ingress_port (_ bv0 9))) $x62)))
(assert
 (let ((?x35 (concat (_ bv0 8) (_ bv0 1))))
 (let (($x41 (and true (= standard_metadata.ingress_port (concat (_ bv0 8) (_ bv1 1))))))
 (let (($x32 (not false)))
 (let (($x45 (and (and $x32 (not (and true (= standard_metadata.ingress_port ?x35)))) $x41)))
 (let ((?x39 (concat (_ bv0 8) (_ bv1 1))))
 (let (($x37 (and true (= standard_metadata.ingress_port ?x35))))
 (let (($x42 (and $x32 $x37)))
 (let ((?x56 (ite $x42 ?x39 (ite $x45 ?x35 standard_metadata.egress_spec))))
 (or (or (= ?x56 (_ bv455 9)) (= ?x56 (_ bv0 9))) (= ?x56 (_ bv1 9))))))))))))
(assert
 (let (($x41 (and true (= standard_metadata.ingress_port (concat (_ bv0 8) (_ bv1 1))))))
 (let (($x32 (not false)))
 (let (($x37 (and true (= standard_metadata.ingress_port (concat (_ bv0 8) (_ bv0 1))))))
 (let (($x42 (and $x32 $x37)))
 (let ((?x55 (ite $x42 0 (ite (and $x32 $x41) 1 (- 1)))))
 (let ((?x35 (concat (_ bv0 8) (_ bv0 1))))
 (let ((?x53 (ite (and (and $x32 (not $x37)) $x41) ?x35 standard_metadata.egress_spec)))
 (let ((?x39 (concat (_ bv0 8) (_ bv1 1))))
 (let ((?x56 (ite $x42 ?x39 ?x53)))
 (let (($x47 (= ?x56 (_ bv455 9))))
 (let (($x114 (and (not $x47) $x32)))
 (and $x114 (= ?x55 0))))))))))))))
(check-sat)

; 
(set-info :status unknown)
(declare-fun standard_metadata.ingress_port () (_ BitVec 9))
(declare-fun standard_metadata.egress_spec () (_ BitVec 9))
(assert
 (let (($x62 (= standard_metadata.ingress_port (_ bv1 9))))
 (or (or false (= standard_metadata.ingress_port (_ bv0 9))) $x62)))
(assert
 (let ((?x35 (concat (_ bv0 8) (_ bv0 1))))
 (let (($x41 (and true (= standard_metadata.ingress_port (concat (_ bv0 8) (_ bv1 1))))))
 (let (($x32 (not false)))
 (let (($x45 (and (and $x32 (not (and true (= standard_metadata.ingress_port ?x35)))) $x41)))
 (let ((?x39 (concat (_ bv0 8) (_ bv1 1))))
 (let (($x37 (and true (= standard_metadata.ingress_port ?x35))))
 (let (($x42 (and $x32 $x37)))
 (let ((?x56 (ite $x42 ?x39 (ite $x45 ?x35 standard_metadata.egress_spec))))
 (or (or (= ?x56 (_ bv455 9)) (= ?x56 (_ bv0 9))) (= ?x56 (_ bv1 9))))))))))))
(assert
 (let (($x41 (and true (= standard_metadata.ingress_port (concat (_ bv0 8) (_ bv1 1))))))
 (let (($x32 (not false)))
 (let (($x37 (and true (= standard_metadata.ingress_port (concat (_ bv0 8) (_ bv0 1))))))
 (let (($x42 (and $x32 $x37)))
 (let ((?x55 (ite $x42 0 (ite (and $x32 $x41) 1 (- 1)))))
 (let ((?x35 (concat (_ bv0 8) (_ bv0 1))))
 (let ((?x53 (ite (and (and $x32 (not $x37)) $x41) ?x35 standard_metadata.egress_spec)))
 (let ((?x39 (concat (_ bv0 8) (_ bv1 1))))
 (let ((?x56 (ite $x42 ?x39 ?x53)))
 (let (($x47 (= ?x56 (_ bv455 9))))
 (and (and (not $x47) $x32) (= ?x55 1)))))))))))))
(check-sat)

